results_rootrelaxation/bin012_090_021.srr.sol
solution status: optimal solution found
objective value:                                 30.5
_var677_                            0.333333333333333 	(obj:3)
_var687_                            0.166666666666667 	(obj:4)
_var697_                            0.166666666666667 	(obj:3)
_var702_                            0.333333333333333 	(obj:4)
_var721_                            0.166666666666667 	(obj:4)
_var727_                                          0.5 	(obj:4)
_var738_                            0.166666666666667 	(obj:4)
_var739_                                          0.5 	(obj:2)
_var741_                            0.333333333333333 	(obj:3)
_var747_                            0.166666666666667 	(obj:3)
_var748_                            0.166666666666667 	(obj:2)
_var756_                            0.833333333333333 	(obj:1)
_var758_                            0.166666666666667 	(obj:3)
_var763_                            0.166666666666667 	(obj:2)
_var764_                            0.166666666666666 	(obj:3)
_var768_                            0.166666666666667 	(obj:4)
_var769_                            0.166666666666667 	(obj:3)
_var781_                            0.666666666666667 	(obj:2)
_var796_                            0.333333333333333 	(obj:2)
_var798_                                          0.5 	(obj:3)
_var799_                            0.333333333333333 	(obj:3)
_var805_                            0.333333333333333 	(obj:3)
_var810_                                          0.5 	(obj:2)
_var811_                            0.166666666666667 	(obj:1)
_var820_                            0.166666666666667 	(obj:3)
_var827_                                          0.5 	(obj:3)
_var829_                                          0.5 	(obj:3)
_var837_                            0.166666666666667 	(obj:3)
_var838_                            0.333333333333333 	(obj:3)
_var844_                            0.333333333333334 	(obj:4)
_var845_                            0.333333333333333 	(obj:2)
_var851_                            0.166666666666667 	(obj:3)
_var853_                            0.166666666666667 	(obj:5)
_var854_                            0.166666666666667 	(obj:3)
_var855_                            0.166666666666667 	(obj:2)
_var866_                            0.166666666666667 	(obj:4)
_var876_                            0.166666666666667 	(obj:2)
_var884_                            0.166666666666667 	(obj:4)
