results_rootrelaxation/bin012_090_021.srr.log
SCIP version 8.0.3.5 [precision: 8 byte] [memory: block] [mode: optimized] [LP solver: Soplex 6.0.1.3] [GitHash: 438792519e]
Copyright (c) 2002-2023 Zuse Institute Berlin (ZIB)

External libraries: 
  Readline 8.1         GNU library for command line editing (gnu.org/s/readline)
  Soplex 6.0.1.3       Linear Programming Solver developed at Zuse Institute Berlin (soplex.zib.de) [GitHash: 713be0fe]
  CppAD 20180000.0     Algorithmic Differentiation of C++ algorithms developed by B. Bell (github.com/coin-or/CppAD)
  ZLIB 1.2.11          General purpose compression library by J. Gailly and M. Adler (zlib.net)
  bliss 0.77           Computing Graph Automorphism Groups by T. Junttila and P. Kaski (www.tcs.hut.fi/Software/bliss/)

user parameter file <scip.set> not found - using default parameters

srr/relaxation = TRUE

read problem <instances/bin012_090_021.srr>
============

Original problem: 
original problem has 0 variables (0 bin, 0 int, 0 impl, 0 cont) and 77 constraints

presolving:
presolving (1 rounds: 1 fast, 1 medium, 1 exhaustive):
 0 deleted vars, 0 deleted constraints, 0 added constraints, 0 tightened bounds, 0 added holes, 0 changed sides, 0 changed coefficients
 0 implications, 0 cliques
presolved problem has 0 variables (0 bin, 0 int, 0 impl, 0 cont) and 77 constraints
     77 constraints of type <linear>
Presolving Time: 0.00

 time | node  | left  |LP iter|LP it/n|mem/heur|mdpt |vars |cons |rows |cuts |sepa|confs|strbr|  dualbound   | primalbound  |  gap   | compl. 
  0.0s|     1 |     0 |     1 |     - |   710k |   0 |   1 |  77 |  77 |   0 |  0 |   0 |   0 |      --      |      --      |    Inf | unknown
r 0.1s|     1 |     0 |  1073 |     - |simplero|   0 | 675 |  77 |  77 |   0 |  0 |   0 |   0 |      --      | 4.582997e+01 |    Inf | unknown
r 0.1s|     1 |     0 |  1106 |     - |simplero|   0 | 686 |  77 |  77 |   0 |  0 |   0 |   0 |      --      | 4.364007e+01 |    Inf | unknown
r 0.1s|     1 |     0 |  1156 |     - |simplero|   0 | 697 |  77 |  77 |   0 |  0 |   0 |   0 |      --      | 4.217108e+01 |    Inf | unknown
r 0.1s|     1 |     0 |  1202 |     - |simplero|   0 | 708 |  77 |  77 |   0 |  0 |   0 |   0 |      --      | 4.090688e+01 |    Inf | unknown
r 0.1s|     1 |     0 |  1204 |     - |simplero|   0 | 708 |  77 |  77 |   0 |  0 |   0 |   0 |      --      | 4.090657e+01 |    Inf | unknown
r 0.1s|     1 |     0 |  1241 |     - |simplero|   0 | 719 |  77 |  77 |   0 |  0 |   0 |   0 |      --      | 3.956612e+01 |    Inf | unknown
r 0.1s|     1 |     0 |  1248 |     - |simplero|   0 | 719 |  77 |  77 |   0 |  0 |   0 |   0 |      --      | 3.953233e+01 |    Inf | unknown
r 0.1s|     1 |     0 |  1249 |     - |simplero|   0 | 719 |  77 |  77 |   0 |  0 |   0 |   0 |      --      | 3.953188e+01 |    Inf | unknown
r 0.1s|     1 |     0 |  1290 |     - |simplero|   0 | 730 |  77 |  77 |   0 |  0 |   0 |   0 |      --      | 3.824962e+01 |    Inf | unknown
r 0.1s|     1 |     0 |  1297 |     - |simplero|   0 | 730 |  77 |  77 |   0 |  0 |   0 |   0 |      --      | 3.823262e+01 |    Inf | unknown
r 0.1s|     1 |     0 |  1298 |     - |simplero|   0 | 730 |  77 |  77 |   0 |  0 |   0 |   0 |      --      | 3.823256e+01 |    Inf | unknown
r 0.1s|     1 |     0 |  1340 |     - |simplero|   0 | 741 |  77 |  77 |   0 |  0 |   0 |   0 |      --      | 3.674952e+01 |    Inf | unknown
r 0.1s|     1 |     0 |  1365 |     - |simplero|   0 | 741 |  77 |  77 |   0 |  0 |   0 |   0 |      --      | 3.645020e+01 |    Inf | unknown
r 0.1s|     1 |     0 |  1366 |     - |simplero|   0 | 741 |  77 |  77 |   0 |  0 |   0 |   0 |      --      | 3.645006e+01 |    Inf | unknown
 time | node  | left  |LP iter|LP it/n|mem/heur|mdpt |vars |cons |rows |cuts |sepa|confs|strbr|  dualbound   | primalbound  |  gap   | compl. 
r 0.1s|     1 |     0 |  1414 |     - |simplero|   0 | 752 |  77 |  77 |   0 |  0 |   0 |   0 |      --      | 3.516804e+01 |    Inf | unknown
r 0.1s|     1 |     0 |  1427 |     - |simplero|   0 | 752 |  77 |  77 |   0 |  0 |   0 |   0 |      --      | 3.498688e+01 |    Inf | unknown
r 0.1s|     1 |     0 |  1438 |     - |simplero|   0 | 752 |  77 |  77 |   0 |  0 |   0 |   0 |      --      | 3.493629e+01 |    Inf | unknown
r 0.1s|     1 |     0 |  1443 |     - |simplero|   0 | 752 |  77 |  77 |   0 |  0 |   0 |   0 |      --      | 3.492571e+01 |    Inf | unknown
r 0.1s|     1 |     0 |  1483 |     - |simplero|   0 | 763 |  77 |  77 |   0 |  0 |   0 |   0 |      --      | 3.374722e+01 |    Inf | unknown
r 0.1s|     1 |     0 |  1491 |     - |simplero|   0 | 763 |  77 |  77 |   0 |  0 |   0 |   0 |      --      | 3.370599e+01 |    Inf | unknown
r 0.1s|     1 |     0 |  1496 |     - |simplero|   0 | 763 |  77 |  77 |   0 |  0 |   0 |   0 |      --      | 3.370011e+01 |    Inf | unknown
r 0.1s|     1 |     0 |  1549 |     - |simplero|   0 | 774 |  77 |  77 |   0 |  0 |   0 |   0 |      --      | 3.286794e+01 |    Inf | unknown
r 0.1s|     1 |     0 |  1575 |     - |simplero|   0 | 774 |  77 |  77 |   0 |  0 |   0 |   0 |      --      | 3.281578e+01 |    Inf | unknown
r 0.1s|     1 |     0 |  1613 |     - |simplero|   0 | 785 |  77 |  77 |   0 |  0 |   0 |   0 |      --      | 3.245213e+01 |    Inf | unknown
r 0.1s|     1 |     0 |  1622 |     - |simplero|   0 | 785 |  77 |  77 |   0 |  0 |   0 |   0 |      --      | 3.243671e+01 |    Inf | unknown
r 0.1s|     1 |     0 |  1625 |     - |simplero|   0 | 785 |  77 |  77 |   0 |  0 |   0 |   0 |      --      | 3.243596e+01 |    Inf | unknown
r 0.1s|     1 |     0 |  1662 |     - |simplero|   0 | 796 |  77 |  77 |   0 |  0 |   0 |   0 |      --      | 3.218838e+01 |    Inf | unknown
r 0.1s|     1 |     0 |  1679 |     - |simplero|   0 | 796 |  77 |  77 |   0 |  0 |   0 |   0 |      --      | 3.210725e+01 |    Inf | unknown
r 0.1s|     1 |     0 |  1681 |     - |simplero|   0 | 796 |  77 |  77 |   0 |  0 |   0 |   0 |      --      | 3.210468e+01 |    Inf | unknown
 time | node  | left  |LP iter|LP it/n|mem/heur|mdpt |vars |cons |rows |cuts |sepa|confs|strbr|  dualbound   | primalbound  |  gap   | compl. 
r 0.1s|     1 |     0 |  1721 |     - |simplero|   0 | 807 |  77 |  77 |   0 |  0 |   0 |   0 |      --      | 3.169119e+01 |    Inf | unknown
  0.1s|     1 |     0 |  1725 |     - |  3668k |   0 | 807 |  77 |  77 |   0 |  0 |   0 |   0 |      --      | 3.169119e+01 |    Inf | unknown
r 0.1s|     1 |     0 |  1725 |     - |simplero|   0 | 807 |  77 |  77 |   0 |  0 |   0 |   0 |      --      | 3.168926e+01 |    Inf | unknown
r 0.1s|     1 |     0 |  1749 |     - |simplero|   0 | 818 |  77 |  77 |   0 |  0 |   0 |   0 |      --      | 3.152561e+01 |    Inf | unknown
r 0.1s|     1 |     0 |  1761 |     - |simplero|   0 | 818 |  77 |  77 |   0 |  0 |   0 |   0 |      --      | 3.148571e+01 |    Inf | unknown
r 0.1s|     1 |     0 |  1794 |     - |simplero|   0 | 828 |  77 |  77 |   0 |  0 |   0 |   0 |      --      | 3.127174e+01 |    Inf | unknown
r 0.1s|     1 |     0 |  1805 |     - |simplero|   0 | 828 |  77 |  77 |   0 |  0 |   0 |   0 |      --      | 3.123611e+01 |    Inf | unknown
r 0.1s|     1 |     0 |  1870 |     - |simplero|   0 | 839 |  77 |  77 |   0 |  0 |   0 |   0 |      --      | 3.095000e+01 |    Inf | unknown
r 0.1s|     1 |     0 |  1903 |     - |simplero|   0 | 850 |  77 |  77 |   0 |  0 |   0 |   0 |      --      | 3.075000e+01 |    Inf | unknown
r 0.1s|     1 |     0 |  1914 |     - |simplero|   0 | 850 |  77 |  77 |   0 |  0 |   0 |   0 |      --      | 3.072124e+01 |    Inf | unknown
r 0.1s|     1 |     0 |  1949 |     - |simplero|   0 | 859 |  77 |  77 |   0 |  0 |   0 |   0 |      --      | 3.057692e+01 |    Inf | unknown
r 0.1s|     1 |     0 |  1954 |     - |simplero|   0 | 859 |  77 |  77 |   0 |  0 |   0 |   0 |      --      | 3.056667e+01 |    Inf | unknown
r 0.1s|     1 |     0 |  1968 |     - |simplero|   0 | 868 |  77 |  77 |   0 |  0 |   0 |   0 |      --      | 3.054430e+01 |    Inf | unknown
r 0.1s|     1 |     0 |  1980 |     - |simplero|   0 | 877 |  77 |  77 |   0 |  0 |   0 |   0 |      --      | 3.053846e+01 |    Inf | unknown
r 0.1s|     1 |     0 |  2001 |     - |simplero|   0 | 887 |  77 |  77 |   0 |  0 |   0 |   0 |      --      | 3.050000e+01 |    Inf | unknown
 time | node  | left  |LP iter|LP it/n|mem/heur|mdpt |vars |cons |rows |cuts |sepa|confs|strbr|  dualbound   | primalbound  |  gap   | compl. 
  0.1s|     1 |     0 |  2007 |     - |  4395k |   0 | 894 |  77 |  77 |   0 |  0 |   0 |   0 | 3.050000e+01 | 3.050000e+01 |   0.00%| unknown
  0.1s|     1 |     0 |  2007 |     - |  4395k |   0 | 894 |  77 |  77 |   0 |  0 |   0 |   0 | 3.050000e+01 | 3.050000e+01 |   0.00%| unknown

SCIP Status        : problem is solved [optimal solution found]
Solving Time (sec) : 0.10
Solving Nodes      : 1
Primal Bound       : +3.05000000000000e+01 (43 solutions)
Dual Bound         : +3.05000000000000e+01
Gap                : 0.00 %

written transformed problem to file <results_rootrelaxation/bin012_090_021.srr.lp>
written transformed problem to file <results_rootrelaxation/bin012_090_021.srr.cip>

written solution information to file <results_rootrelaxation/bin012_090_021.srr.sol>



